n = 33;
lu = [|-714, 1020
      |-944, 423
      |703, 1073
      |-648, 782
      |65, 461
      |644, 729
      |-887, -498
      |-717, 603
      |-782, 93
      |390, 681
      |-950, 410
      |-216, 1068
      |618, 980
      |-1054, -831
      |-1058, 1000
      |-808, 389
      |-993, -168
      |237, 352
      |-437, 1071
      |-1034, -1001
      |-197, 187
      |-159, 1002
      |-917, 146
      |27, 69
      |-256, 882
      |-503, -217
      |-892, 2
      |708, 750
      |-1079, -660
      |-110, 3
      |-728, 726
      |-556, 308
      |-969, 347|];
